%nproc=2
%mem=4gb
# M062X def2TZVP opt(noeigen,calcfc,z-matrix)

TiO21aHCOOH

0 1
Ti1
O2	1	R1
O3	1	R2	2	A1
H4	3	R3	1	A2	2	D1
C5	1	Dist	2	A3	3	D2
O6	5	R4	1	A4	2	D3
O7	5	R4	1	A4	3	D3
H8	5	R5	6	A5	7	D4
  Variables:
R1=1.68345512
R2=1.80
R3=1.0
R4=1.25
R5=1.125
A1=107.96915552
A2=110.
A3=125.
A4=65.
A5=114.909
D1=0.0
D2=180.
D3=90.
D4=180.
Dist=2.25
  Constants:
