%nproc=2
%mem=4gb
%chk=TiO21aHigher1.chk
# MP2 Def2TZVP sp pop=Hirshfeld

TiO21a1

0 1
Ti
O,1,R1
O,1,R1,2,A1
     Variables:
R1=1.68345512
A1=107.96915552
